0,1
5,1
0,1
0,1
2,2
0,2
3,2
7,2
0,3
0,1
0,1
0,1
8,2
0,2
0,2
0,2
0,2
0,3
0,1
9,4
5,4
0,4
0,3
0,3
0,3
0,3
0,3
2,1
0,4
0,4
0,4
0,3
0,3
0,5
0,5
1,5
0,6
3,4
0,4
0,7
0,7
0,5
0,5
0,5
0,5
7,6
0,4
0,6
3,7
1,7
0,8
0,5
0,5
0,9
0,6
4,6
0,6
0,7
6,8
0,8
9,8
0,9
5,9
8,6
0,6
0,7
0,7
4,8
0,8
1,9
0,9
0,9
0,6
6,7
0,7
0,8
0,8
0,8
4,9
8,9
3,9